n_machines = 5;
n_resources = 8;
n_jobs = 40;
horizon = 220;
LB = 44;
n_jobs_per_resource = [5, 5, 5, 5, 5, 5, 5, 5];
duration = [6, 6, 4, 6, 8, 9, 8, 5, 1, 3, 9, 6, 7, 6, 8, 5, 5, 5, 2, 3, 7, 2, 1, 2, 8, 8, 8, 4, 4, 1, 4, 9, 8, 4, 9, 7, 6, 5, 9, 2]